language ESSENCE' 1.0

letting jobs = 102
letting horizon = 832
letting resourcesRenew = 2
letting resourcesNonrenew = 2
letting resourceLimits = [11, 12, 480, 476]
letting successors = [[2, 3, 4, 5, 6, 7, 8, 11, 13, 15], [26, 25, 21, 20, 18, 14, 9], [27, 20, 12, 10, 9], [33, 27, 26, 24, 23, 22, 21, 20, 19, 16], [31, 28, 27, 26, 25, 24, 23, 21, 20, 19], [33, 28, 27, 23, 22, 19, 10], [31, 27, 24, 23, 21, 20], [48, 42, 39, 33, 28, 26, 21, 20], [32, 30, 29, 28, 24, 23, 17], [42, 39, 34, 31, 30, 29, 26, 25], [46, 31, 28, 27, 26, 25], [40, 30, 23, 21], [36, 35, 34, 32, 30, 28, 24], [48, 34, 29, 27, 22], [48, 46, 42, 40, 39, 38, 36, 35, 34, 32, 30], [48, 46, 40, 36, 35, 34, 32, 28], [50, 48, 46, 40, 38, 35, 34, 31], [48, 42, 39, 37, 36, 32, 29], [41, 40, 39, 36, 35, 29], [40, 36, 35, 30, 29], [35, 34, 32, 29], [39, 35, 32, 31], [48, 46, 41, 39, 36, 35], [50, 48, 46, 44, 43, 42, 41, 40], [50, 48, 45, 41, 40, 35], [38, 37, 32], [44, 41, 39, 38, 37], [54, 50, 44, 38, 37], [54, 52, 50, 49, 47, 46, 43, 38], [56, 45, 41, 37], [44, 41, 36], [56, 50, 47, 45, 44, 41], [56, 52, 45, 44, 43, 41], [47, 45, 44, 43, 41], [56, 54, 44, 37], [56, 52, 51, 49, 47, 45], [53, 52, 49, 47, 43], [66, 61, 56, 51, 45], [57, 52, 49, 43], [66, 56, 54, 53, 52, 47], [54, 53, 51, 49], [66, 61, 52, 45], [66, 65, 61, 55, 51], [66, 65, 61, 55, 51], [59, 57, 55, 53], [65, 64, 58, 51], [72, 71, 70, 69, 67, 65, 64, 63, 61, 60, 58], [72, 69, 66, 61, 53], [70, 66, 62, 61, 55], [74, 72, 71, 70, 69, 67, 66, 64, 63, 62], [72, 71, 69, 62, 60, 59], [71, 65, 62, 60, 59, 58], [70, 67, 65, 64, 62, 58], [77, 75, 74, 72, 71, 64, 63, 62], [75, 74, 73, 72, 69, 64, 63], [74, 72, 62, 59], [73, 71, 67, 63, 62], [83, 81, 78, 77, 76, 75, 74, 68], [88, 86, 76, 70, 67], [88, 86, 83, 79, 76, 74, 73], [86, 83, 81, 79, 77, 76, 74], [84, 83, 81, 80, 68], [81, 80, 78, 76, 68], [81, 80, 76, 68], [88, 86, 85, 83, 82, 81, 80, 79], [100, 90, 88, 86, 84, 79, 77], [90, 81, 78, 77, 75], [101, 100, 90, 88, 86, 85, 82, 79], [100, 90, 86, 85, 84, 83, 80], [90, 85, 84, 81, 80, 78], [101, 100, 98, 95, 90, 88, 86, 82], [100, 90, 87, 84, 83, 82], [97, 90, 84, 77], [100, 99, 90, 85, 84, 80], [100, 99, 85, 79], [101, 100, 98, 97, 95, 89, 85], [101, 98, 95, 85, 82], [100, 98, 95, 87, 82], [98, 97, 95, 89, 87], [97, 96, 95, 89, 87], [100, 99, 98, 97, 95, 93, 92, 91], [99, 96, 94, 93, 92, 89], [101, 99, 97, 95, 93, 89], [98, 96, 95, 94, 92, 91], [96, 87], [97, 87], [94, 93, 92, 91], [96, 93], [91], [92], [102], [102], [102], [102], [102], [102], [102], [102], [102], [102], [102], []]
letting durations = [[0], [1, 5, 6], [5, 8, 10], [2, 4, 7], [1, 8, 9], [3, 4, 9], [1, 2, 5], [1, 2, 5], [3, 7, 8], [3, 4, 8], [1, 5, 7], [5, 6, 9], [4, 7, 8], [2, 3, 5], [1, 5, 9], [3, 4, 10], [4, 5, 9], [1, 7, 8], [3, 8, 9], [1, 1, 7], [1, 3, 9], [1, 8, 9], [2, 5, 7], [3, 4, 5], [1, 6, 6], [1, 4, 7], [6, 8, 9], [1, 2, 10], [9, 9, 10], [2, 3, 9], [2, 4, 9], [7, 9, 10], [2, 3, 10], [5, 6, 10], [1, 9, 10], [1, 7, 8], [2, 4, 5], [2, 7, 9], [1, 4, 9], [1, 7, 9], [7, 10, 10], [3, 8, 10], [1, 5, 10], [4, 5, 8], [4, 7, 9], [4, 5, 5], [7, 9, 10], [1, 1, 2], [7, 8, 9], [5, 7, 8], [1, 6, 7], [1, 3, 6], [4, 4, 7], [8, 9, 10], [7, 7, 10], [2, 7, 10], [2, 2, 10], [3, 6, 9], [2, 4, 6], [2, 4, 4], [5, 7, 7], [2, 6, 9], [5, 8, 9], [1, 5, 8], [3, 4, 4], [8, 9, 10], [3, 4, 8], [4, 8, 9], [1, 3, 3], [1, 2, 9], [5, 7, 10], [1, 7, 9], [1, 9, 10], [8, 9, 9], [2, 6, 9], [1, 2, 8], [8, 8, 10], [5, 6, 8], [1, 1, 5], [1, 4, 9], [5, 6, 10], [4, 9, 10], [2, 5, 9], [1, 5, 10], [5, 7, 10], [4, 7, 7], [6, 8, 9], [5, 8, 9], [2, 3, 10], [1, 5, 10], [3, 6, 9], [2, 5, 9], [3, 7, 7], [2, 6, 8], [2, 6, 9], [3, 6, 8], [3, 9, 10], [1, 6, 10], [3, 8, 9], [4, 5, 8], [2, 4, 10], [0]]
letting resourceUsage = [[[0, 0, 0, 0]], [[0, 4, 5, 4], [3, 0, 5, 2], [3, 0, 5, 1]], [[0, 3, 8, 7], [0, 3, 6, 5], [3, 0, 5, 5]], [[5, 0, 7, 7], [5, 0, 6, 7], [0, 3, 6, 3]], [[4, 0, 2, 4], [0, 3, 2, 4], [0, 1, 2, 4]], [[0, 4, 3, 7], [0, 4, 1, 7], [0, 4, 1, 6]], [[0, 4, 4, 2], [2, 0, 4, 1], [0, 2, 2, 1]], [[5, 0, 7, 8], [3, 0, 5, 8], [0, 3, 4, 4]], [[4, 0, 6, 8], [0, 2, 4, 8], [0, 2, 1, 7]], [[4, 0, 4, 4], [2, 0, 4, 4], [1, 0, 4, 4]], [[3, 0, 7, 7], [0, 5, 5, 6], [1, 0, 5, 1]], [[3, 0, 4, 6], [3, 0, 4, 5], [3, 0, 2, 5]], [[0, 4, 7, 8], [0, 3, 5, 7], [0, 3, 2, 6]], [[5, 0, 7, 4], [5, 0, 6, 4], [5, 0, 6, 3]], [[3, 0, 3, 7], [3, 0, 2, 6], [0, 1, 2, 5]], [[0, 3, 8, 8], [3, 0, 4, 7], [1, 0, 4, 6]], [[1, 0, 2, 4], [1, 0, 1, 3], [0, 4, 1, 2]], [[1, 0, 4, 6], [1, 0, 4, 3], [0, 2, 3, 3]], [[3, 0, 5, 5], [0, 2, 5, 5], [2, 0, 5, 5]], [[0, 3, 5, 6], [2, 0, 3, 6], [1, 0, 3, 4]], [[0, 4, 7, 2], [0, 4, 5, 2], [0, 3, 5, 2]], [[0, 4, 9, 6], [0, 3, 5, 5], [0, 3, 2, 3]], [[0, 3, 6, 3], [0, 2, 5, 2], [0, 2, 4, 2]], [[1, 0, 8, 10], [1, 0, 8, 5], [0, 3, 8, 4]], [[0, 5, 6, 7], [0, 4, 5, 7], [5, 0, 5, 5]], [[0, 5, 4, 7], [0, 5, 3, 5], [1, 0, 3, 4]], [[4, 0, 9, 4], [3, 0, 9, 3], [3, 0, 8, 3]], [[3, 0, 3, 8], [2, 0, 2, 5], [2, 0, 1, 2]], [[0, 2, 9, 9], [3, 0, 6, 7], [2, 0, 5, 4]], [[2, 0, 9, 9], [2, 0, 7, 8], [0, 1, 7, 7]], [[4, 0, 1, 4], [3, 0, 1, 2], [3, 0, 1, 1]], [[3, 0, 10, 3], [0, 2, 9, 2], [2, 0, 8, 2]], [[0, 4, 4, 9], [1, 0, 3, 9], [1, 0, 2, 8]], [[4, 0, 6, 8], [2, 0, 6, 5], [2, 0, 6, 3]], [[2, 0, 8, 4], [2, 0, 5, 3], [2, 0, 4, 1]], [[0, 2, 9, 8], [0, 2, 9, 7], [0, 2, 8, 6]], [[4, 0, 3, 4], [3, 0, 3, 4], [3, 0, 3, 2]], [[0, 4, 1, 5], [2, 0, 1, 4], [0, 2, 1, 4]], [[0, 2, 7, 6], [2, 0, 6, 5], [1, 0, 5, 4]], [[2, 0, 3, 6], [2, 0, 3, 3], [2, 0, 2, 2]], [[3, 0, 5, 4], [0, 2, 5, 3], [1, 0, 5, 3]], [[0, 3, 7, 10], [0, 2, 7, 7], [1, 0, 6, 5]], [[5, 0, 7, 5], [3, 0, 7, 4], [0, 2, 7, 4]], [[5, 0, 9, 4], [0, 2, 5, 3], [0, 2, 1, 2]], [[0, 3, 8, 7], [1, 0, 7, 6], [0, 3, 7, 6]], [[3, 0, 7, 6], [0, 2, 4, 5], [1, 0, 2, 3]], [[5, 0, 3, 8], [2, 0, 3, 8], [2, 0, 3, 7]], [[4, 0, 8, 9], [0, 1, 5, 8], [0, 1, 5, 6]], [[0, 3, 7, 6], [0, 2, 6, 5], [0, 2, 2, 4]], [[5, 0, 3, 7], [5, 0, 3, 5], [5, 0, 3, 4]], [[5, 0, 7, 7], [4, 0, 4, 4], [4, 0, 2, 3]], [[3, 0, 8, 4], [0, 2, 8, 3], [1, 0, 8, 2]], [[5, 0, 10, 5], [0, 3, 10, 5], [0, 2, 10, 5]], [[1, 0, 7, 8], [1, 0, 7, 6], [0, 3, 7, 5]], [[0, 3, 5, 8], [3, 0, 3, 7], [3, 0, 2, 6]], [[3, 0, 5, 9], [1, 0, 4, 8], [0, 3, 4, 7]], [[5, 0, 4, 8], [0, 3, 3, 8], [5, 0, 2, 8]], [[3, 0, 10, 6], [0, 3, 5, 4], [0, 3, 4, 4]], [[4, 0, 8, 10], [0, 3, 5, 6], [0, 3, 2, 4]], [[0, 3, 9, 10], [0, 1, 9, 5], [3, 0, 9, 2]], [[3, 0, 3, 2], [3, 0, 3, 1], [0, 1, 2, 1]], [[0, 5, 9, 10], [2, 0, 6, 9], [0, 3, 5, 9]], [[3, 0, 7, 4], [2, 0, 5, 4], [2, 0, 5, 3]], [[0, 4, 9, 6], [1, 0, 7, 5], [1, 0, 6, 4]], [[3, 0, 6, 5], [0, 4, 4, 5], [1, 0, 4, 5]], [[0, 5, 7, 5], [1, 0, 7, 4], [1, 0, 6, 3]], [[0, 5, 7, 9], [0, 4, 7, 8], [0, 3, 7, 6]], [[0, 4, 8, 9], [1, 0, 8, 7], [1, 0, 6, 7]], [[0, 1, 8, 7], [0, 1, 4, 7], [3, 0, 4, 6]], [[0, 2, 8, 7], [0, 2, 8, 6], [3, 0, 8, 6]], [[3, 0, 9, 8], [3, 0, 7, 5], [3, 0, 5, 3]], [[0, 4, 4, 7], [4, 0, 2, 5], [4, 0, 2, 1]], [[5, 0, 8, 6], [5, 0, 7, 5], [0, 1, 6, 4]], [[0, 5, 7, 8], [0, 5, 5, 7], [5, 0, 5, 6]], [[0, 5, 8, 6], [4, 0, 6, 5], [4, 0, 3, 3]], [[0, 4, 5, 4], [0, 4, 4, 3], [3, 0, 3, 2]], [[4, 0, 8, 8], [0, 2, 7, 7], [0, 2, 7, 6]], [[0, 3, 2, 10], [3, 0, 2, 6], [0, 2, 1, 6]], [[0, 1, 8, 9], [3, 0, 7, 7], [0, 1, 7, 7]], [[0, 2, 10, 7], [0, 1, 5, 6], [0, 1, 1, 4]], [[0, 4, 9, 5], [0, 4, 9, 4], [0, 3, 9, 3]], [[2, 0, 7, 3], [0, 1, 6, 3], [2, 0, 4, 3]], [[0, 3, 8, 2], [0, 3, 4, 2], [1, 0, 4, 2]], [[4, 0, 7, 8], [0, 3, 7, 8], [0, 3, 5, 6]], [[0, 4, 3, 8], [0, 2, 3, 7], [0, 1, 3, 7]], [[3, 0, 3, 7], [2, 0, 3, 3], [0, 3, 3, 3]], [[4, 0, 3, 5], [0, 3, 1, 4], [3, 0, 1, 3]], [[1, 0, 5, 5], [0, 3, 3, 4], [0, 3, 2, 4]], [[2, 0, 9, 7], [1, 0, 9, 7], [1, 0, 9, 5]], [[5, 0, 4, 1], [0, 3, 3, 1], [0, 2, 3, 1]], [[5, 0, 6, 7], [4, 0, 5, 7], [0, 2, 2, 5]], [[0, 3, 10, 8], [3, 0, 4, 8], [3, 0, 2, 5]], [[0, 4, 5, 6], [0, 3, 3, 3], [3, 0, 2, 2]], [[0, 3, 8, 10], [5, 0, 8, 6], [5, 0, 7, 6]], [[0, 3, 9, 8], [4, 0, 5, 6], [3, 0, 2, 3]], [[0, 4, 7, 8], [0, 3, 6, 5], [0, 3, 5, 4]], [[5, 0, 7, 10], [0, 3, 7, 10], [0, 2, 7, 10]], [[4, 0, 2, 7], [0, 2, 1, 7], [0, 2, 1, 6]], [[0, 4, 10, 4], [3, 0, 8, 4], [0, 3, 7, 2]], [[3, 0, 9, 9], [3, 0, 7, 6], [0, 1, 5, 4]], [[0, 3, 10, 7], [1, 0, 10, 5], [0, 3, 10, 4]], [[0, 0, 0, 0]]]
